































































































11 57 69 37 
32 74 34 8 24 
22 5 26 60 38 
70 2 16 66 
6 54 0 7 
25 30 49 53 21 
63 28 3 72 76 
13 51 23 64 
43 35 48 33 
67 1 10 14 
41 31 50 75 
46 62 20 52 61 

58 65 45 15 
4 18 9 68 
47 12 55 44 
71 36 40 56 
39 27 73 42 
59 29 19 17 
